Minimize
	value: tt

Subject to
tt + 1000 s_1_1 > 0.0
tt - t_1_1 - 1003.513429 s_1_1  + 3.513429 s_1_7  > -956.688150
tt + 1000 s_2_1 > 0.0
tt - t_2_1 - 1003.145626 s_2_1  + 3.145626 s_2_7  > -960.587450
tt + 1000 s_1_2 > 0.0
tt - t_1_2 - 1003.513429 s_1_2  + 3.513429 s_1_8  > -948.292400
tt + 1000 s_2_2 > 0.0
tt - t_2_2 - 1003.145626 s_2_2  + 3.145626 s_2_8  > -954.786400
tt + 1000 s_1_3 > 0.0
tt - t_1_3 - 1003.513429 s_1_3  + 3.513429 s_1_8  > -934.920200
tt + 1000 s_2_3 > 0.0
tt - t_2_3 - 1003.145626 s_2_3  + 3.145626 s_2_8  > -936.407600
tt + 1000 s_1_4 > 0.0
tt - t_1_4 - 1007.026859 s_1_4  + 3.513429 s_1_3  + 3.513429 s_1_8  > -963.433200
tt + 1000 s_2_4 > 0.0
tt - t_2_4 - 1006.291251 s_2_4  + 3.145626 s_2_3  + 3.145626 s_2_8  > -964.773600
tt + 1000 s_1_5 > 0.0
tt - t_1_5 - 1007.026859 s_1_5  + 3.513429 s_1_7  + 3.513429 s_1_8  > -968.633600
tt + 1000 s_2_5 > 0.0
tt - t_2_5 - 1006.291251 s_2_5  + 3.145626 s_2_7  + 3.145626 s_2_8  > -968.477400
tt + 1000 s_1_6 > 0.0
tt - t_1_6 - 1017.567146 s_1_6  + 3.513429 s_1_2  + 3.513429 s_1_3  + 3.513429 s_1_5  + 3.513429 s_1_1  + 3.513429 s_1_4  > -995.629600
tt + 1000 s_2_6 > 0.0
tt - t_2_6 - 1015.728128 s_2_6  + 3.145626 s_2_2  + 3.145626 s_2_3  + 3.145626 s_2_5  + 3.145626 s_2_1  + 3.145626 s_2_4  > -945.171600
tt + 1000 s_1_7 > 0.0
tt - t_1_7 - 1000.000000 s_1_7  > -928.421400
tt + 1000 s_2_7 > 0.0
tt - t_2_7 - 1000.000000 s_2_7  > -934.069000
tt + 1000 s_1_8 > 0.0
tt - t_1_8 - 1000.000000 s_1_8  > -928.474600
tt + 1000 s_2_8 > 0.0
tt - t_2_8 - 1000.000000 s_2_8  > -934.118800
s_1_1 + s_2_1 = 1
s_1_2 + s_2_2 = 1
s_1_3 + s_2_3 = 1
s_1_4 + s_2_4 = 1
s_1_5 + s_2_5 = 1
s_1_6 + s_2_6 = 1
s_1_7 + s_2_7 = 1
s_1_8 + s_2_8 = 1
s_1_1 + s_1_2 + 1000 r_1_1_2 >= 2
- s_1_1 - s_1_2 - 1000 r_1_1_2 >= -1001
t_1_1 - t_1_2 - 1000.000000 u_1_1_2 - 3.513429 s_1_2  + 3.513429 s_1_8  + 2000.000000 r_1_1_2 > -948.292400
s_2_1 + s_2_2 + 1000 r_2_1_2 >= 2
- s_2_1 - s_2_2 - 1000 r_2_1_2 >= -1001
t_2_1 - t_2_2 - 1000.000000 u_2_1_2 - 3.145626 s_2_2  + 3.145626 s_2_8  + 2000.000000 r_2_1_2 > -954.786400
s_1_1 + s_1_3 + 1000 r_1_1_3 >= 2
- s_1_1 - s_1_3 - 1000 r_1_1_3 >= -1001
t_1_1 - t_1_3 - 1000.000000 u_1_1_3 - 3.513429 s_1_3  + 3.513429 s_1_8  + 2000.000000 r_1_1_3 > -934.920200
s_2_1 + s_2_3 + 1000 r_2_1_3 >= 2
- s_2_1 - s_2_3 - 1000 r_2_1_3 >= -1001
t_2_1 - t_2_3 - 1000.000000 u_2_1_3 - 3.145626 s_2_3  + 3.145626 s_2_8  + 2000.000000 r_2_1_3 > -936.407600
s_1_1 + s_1_4 + 1000 r_1_1_4 >= 2
- s_1_1 - s_1_4 - 1000 r_1_1_4 >= -1001
t_1_1 - t_1_4 - 1000.000000 u_1_1_4 - 7.026859 s_1_4  + 3.513429 s_1_3  + 3.513429 s_1_8  + 2000.000000 r_1_1_4 > -963.433200
s_2_1 + s_2_4 + 1000 r_2_1_4 >= 2
- s_2_1 - s_2_4 - 1000 r_2_1_4 >= -1001
t_2_1 - t_2_4 - 1000.000000 u_2_1_4 - 6.291251 s_2_4  + 3.145626 s_2_3  + 3.145626 s_2_8  + 2000.000000 r_2_1_4 > -964.773600
s_1_1 + s_1_5 + 1000 r_1_1_5 >= 2
- s_1_1 - s_1_5 - 1000 r_1_1_5 >= -1001
t_1_1 - t_1_5 - 1000.000000 u_1_1_5 - 7.026859 s_1_5  + 3.513429 s_1_7  + 3.513429 s_1_8  + 2000.000000 r_1_1_5 > -968.633600
s_2_1 + s_2_5 + 1000 r_2_1_5 >= 2
- s_2_1 - s_2_5 - 1000 r_2_1_5 >= -1001
t_2_1 - t_2_5 - 1000.000000 u_2_1_5 - 6.291251 s_2_5  + 3.145626 s_2_7  + 3.145626 s_2_8  + 2000.000000 r_2_1_5 > -968.477400
t_1_6 - t_1_1 - 1003.513429 s_1_1  + 3.513429 s_1_7  > -956.688150
t_1_6 - t_2_1 - 1003.145626 s_2_1  + 3.145626 s_2_7  > -960.587450
t_2_6 - t_1_1 - 1003.513429 s_1_1  + 3.513429 s_1_7  > -956.688150
t_2_6 - t_2_1 - 1003.145626 s_2_1  + 3.145626 s_2_7  > -960.587450
t_1_1 - t_1_7 - 1000.000000 s_1_7  > -928.421400
t_1_1 - t_2_7 - 1000.000000 s_2_7  > -934.069000
t_2_1 - t_1_7 - 1000.000000 s_1_7  > -928.421400
t_2_1 - t_2_7 - 1000.000000 s_2_7  > -934.069000
s_1_1 + s_1_8 + 1000 r_1_1_8 >= 2
- s_1_1 - s_1_8 - 1000 r_1_1_8 >= -1001
t_1_1 - t_1_8 - 1000.000000 u_1_1_8 - 0.000000 s_1_8  + 2000.000000 r_1_1_8 > -928.474600
s_2_1 + s_2_8 + 1000 r_2_1_8 >= 2
- s_2_1 - s_2_8 - 1000 r_2_1_8 >= -1001
t_2_1 - t_2_8 - 1000.000000 u_2_1_8 - 0.000000 s_2_8  + 2000.000000 r_2_1_8 > -934.118800
s_1_2 + s_1_1 + 1000 r_1_1_2 >= 2
- s_1_2 - s_1_1 - 1000 r_1_1_2 >= -1001
t_1_2 - t_1_1 + 1000.000000 u_1_1_2 - 3.513429 s_1_1  + 3.513429 s_1_7  + 2000.000000 r_1_1_2 > 43.311850
s_2_2 + s_2_1 + 1000 r_2_1_2 >= 2
- s_2_2 - s_2_1 - 1000 r_2_1_2 >= -1001
t_2_2 - t_2_1 + 1000.000000 u_2_1_2 - 3.145626 s_2_1  + 3.145626 s_2_7  + 2000.000000 r_2_1_2 > 39.412550
s_1_2 + s_1_3 + 1000 r_1_2_3 >= 2
- s_1_2 - s_1_3 - 1000 r_1_2_3 >= -1001
t_1_2 - t_1_3 - 1000.000000 u_1_2_3 - 3.513429 s_1_3  + 3.513429 s_1_8  + 2000.000000 r_1_2_3 > -934.920200
s_2_2 + s_2_3 + 1000 r_2_2_3 >= 2
- s_2_2 - s_2_3 - 1000 r_2_2_3 >= -1001
t_2_2 - t_2_3 - 1000.000000 u_2_2_3 - 3.145626 s_2_3  + 3.145626 s_2_8  + 2000.000000 r_2_2_3 > -936.407600
s_1_2 + s_1_4 + 1000 r_1_2_4 >= 2
- s_1_2 - s_1_4 - 1000 r_1_2_4 >= -1001
t_1_2 - t_1_4 - 1000.000000 u_1_2_4 - 7.026859 s_1_4  + 3.513429 s_1_3  + 3.513429 s_1_8  + 2000.000000 r_1_2_4 > -963.433200
s_2_2 + s_2_4 + 1000 r_2_2_4 >= 2
- s_2_2 - s_2_4 - 1000 r_2_2_4 >= -1001
t_2_2 - t_2_4 - 1000.000000 u_2_2_4 - 6.291251 s_2_4  + 3.145626 s_2_3  + 3.145626 s_2_8  + 2000.000000 r_2_2_4 > -964.773600
s_1_2 + s_1_5 + 1000 r_1_2_5 >= 2
- s_1_2 - s_1_5 - 1000 r_1_2_5 >= -1001
t_1_2 - t_1_5 - 1000.000000 u_1_2_5 - 7.026859 s_1_5  + 3.513429 s_1_7  + 3.513429 s_1_8  + 2000.000000 r_1_2_5 > -968.633600
s_2_2 + s_2_5 + 1000 r_2_2_5 >= 2
- s_2_2 - s_2_5 - 1000 r_2_2_5 >= -1001
t_2_2 - t_2_5 - 1000.000000 u_2_2_5 - 6.291251 s_2_5  + 3.145626 s_2_7  + 3.145626 s_2_8  + 2000.000000 r_2_2_5 > -968.477400
t_1_6 - t_1_2 - 1003.513429 s_1_2  + 3.513429 s_1_8  > -948.292400
t_1_6 - t_2_2 - 1003.145626 s_2_2  + 3.145626 s_2_8  > -954.786400
t_2_6 - t_1_2 - 1003.513429 s_1_2  + 3.513429 s_1_8  > -948.292400
t_2_6 - t_2_2 - 1003.145626 s_2_2  + 3.145626 s_2_8  > -954.786400
s_1_2 + s_1_7 + 1000 r_1_2_7 >= 2
- s_1_2 - s_1_7 - 1000 r_1_2_7 >= -1001
t_1_2 - t_1_7 - 1000.000000 u_1_2_7 - 0.000000 s_1_7  + 2000.000000 r_1_2_7 > -928.421400
s_2_2 + s_2_7 + 1000 r_2_2_7 >= 2
- s_2_2 - s_2_7 - 1000 r_2_2_7 >= -1001
t_2_2 - t_2_7 - 1000.000000 u_2_2_7 - 0.000000 s_2_7  + 2000.000000 r_2_2_7 > -934.069000
t_1_2 - t_1_8 - 1000.000000 s_1_8  > -928.474600
t_1_2 - t_2_8 - 1000.000000 s_2_8  > -934.118800
t_2_2 - t_1_8 - 1000.000000 s_1_8  > -928.474600
t_2_2 - t_2_8 - 1000.000000 s_2_8  > -934.118800
s_1_3 + s_1_1 + 1000 r_1_1_3 >= 2
- s_1_3 - s_1_1 - 1000 r_1_1_3 >= -1001
t_1_3 - t_1_1 + 1000.000000 u_1_1_3 - 3.513429 s_1_1  + 3.513429 s_1_7  + 2000.000000 r_1_1_3 > 43.311850
s_2_3 + s_2_1 + 1000 r_2_1_3 >= 2
- s_2_3 - s_2_1 - 1000 r_2_1_3 >= -1001
t_2_3 - t_2_1 + 1000.000000 u_2_1_3 - 3.145626 s_2_1  + 3.145626 s_2_7  + 2000.000000 r_2_1_3 > 39.412550
s_1_3 + s_1_2 + 1000 r_1_2_3 >= 2
- s_1_3 - s_1_2 - 1000 r_1_2_3 >= -1001
t_1_3 - t_1_2 + 1000.000000 u_1_2_3 - 3.513429 s_1_2  + 3.513429 s_1_8  + 2000.000000 r_1_2_3 > 51.707600
s_2_3 + s_2_2 + 1000 r_2_2_3 >= 2
- s_2_3 - s_2_2 - 1000 r_2_2_3 >= -1001
t_2_3 - t_2_2 + 1000.000000 u_2_2_3 - 3.145626 s_2_2  + 3.145626 s_2_8  + 2000.000000 r_2_2_3 > 45.213600
t_1_4 - t_1_3 - 1003.513429 s_1_3  + 3.513429 s_1_8  > -934.920200
t_1_4 - t_2_3 - 1003.145626 s_2_3  + 3.145626 s_2_8  > -936.407600
t_2_4 - t_1_3 - 1003.513429 s_1_3  + 3.513429 s_1_8  > -934.920200
t_2_4 - t_2_3 - 1003.145626 s_2_3  + 3.145626 s_2_8  > -936.407600
s_1_3 + s_1_5 + 1000 r_1_3_5 >= 2
- s_1_3 - s_1_5 - 1000 r_1_3_5 >= -1001
t_1_3 - t_1_5 - 1000.000000 u_1_3_5 - 7.026859 s_1_5  + 3.513429 s_1_7  + 3.513429 s_1_8  + 2000.000000 r_1_3_5 > -968.633600
s_2_3 + s_2_5 + 1000 r_2_3_5 >= 2
- s_2_3 - s_2_5 - 1000 r_2_3_5 >= -1001
t_2_3 - t_2_5 - 1000.000000 u_2_3_5 - 6.291251 s_2_5  + 3.145626 s_2_7  + 3.145626 s_2_8  + 2000.000000 r_2_3_5 > -968.477400
t_1_6 - t_1_3 - 1003.513429 s_1_3  + 3.513429 s_1_8  > -934.920200
t_1_6 - t_2_3 - 1003.145626 s_2_3  + 3.145626 s_2_8  > -936.407600
t_2_6 - t_1_3 - 1003.513429 s_1_3  + 3.513429 s_1_8  > -934.920200
t_2_6 - t_2_3 - 1003.145626 s_2_3  + 3.145626 s_2_8  > -936.407600
s_1_3 + s_1_7 + 1000 r_1_3_7 >= 2
- s_1_3 - s_1_7 - 1000 r_1_3_7 >= -1001
t_1_3 - t_1_7 - 1000.000000 u_1_3_7 - 0.000000 s_1_7  + 2000.000000 r_1_3_7 > -928.421400
s_2_3 + s_2_7 + 1000 r_2_3_7 >= 2
- s_2_3 - s_2_7 - 1000 r_2_3_7 >= -1001
t_2_3 - t_2_7 - 1000.000000 u_2_3_7 - 0.000000 s_2_7  + 2000.000000 r_2_3_7 > -934.069000
t_1_3 - t_1_8 - 1000.000000 s_1_8  > -928.474600
t_1_3 - t_2_8 - 1000.000000 s_2_8  > -934.118800
t_2_3 - t_1_8 - 1000.000000 s_1_8  > -928.474600
t_2_3 - t_2_8 - 1000.000000 s_2_8  > -934.118800
s_1_4 + s_1_1 + 1000 r_1_1_4 >= 2
- s_1_4 - s_1_1 - 1000 r_1_1_4 >= -1001
t_1_4 - t_1_1 + 1000.000000 u_1_1_4 - 3.513429 s_1_1  + 3.513429 s_1_7  + 2000.000000 r_1_1_4 > 43.311850
s_2_4 + s_2_1 + 1000 r_2_1_4 >= 2
- s_2_4 - s_2_1 - 1000 r_2_1_4 >= -1001
t_2_4 - t_2_1 + 1000.000000 u_2_1_4 - 3.145626 s_2_1  + 3.145626 s_2_7  + 2000.000000 r_2_1_4 > 39.412550
s_1_4 + s_1_2 + 1000 r_1_2_4 >= 2
- s_1_4 - s_1_2 - 1000 r_1_2_4 >= -1001
t_1_4 - t_1_2 + 1000.000000 u_1_2_4 - 3.513429 s_1_2  + 3.513429 s_1_8  + 2000.000000 r_1_2_4 > 51.707600
s_2_4 + s_2_2 + 1000 r_2_2_4 >= 2
- s_2_4 - s_2_2 - 1000 r_2_2_4 >= -1001
t_2_4 - t_2_2 + 1000.000000 u_2_2_4 - 3.145626 s_2_2  + 3.145626 s_2_8  + 2000.000000 r_2_2_4 > 45.213600
s_1_4 + s_1_5 + 1000 r_1_4_5 >= 2
- s_1_4 - s_1_5 - 1000 r_1_4_5 >= -1001
t_1_4 - t_1_5 - 1000.000000 u_1_4_5 - 7.026859 s_1_5  + 3.513429 s_1_7  + 3.513429 s_1_8  + 2000.000000 r_1_4_5 > -968.633600
s_2_4 + s_2_5 + 1000 r_2_4_5 >= 2
- s_2_4 - s_2_5 - 1000 r_2_4_5 >= -1001
t_2_4 - t_2_5 - 1000.000000 u_2_4_5 - 6.291251 s_2_5  + 3.145626 s_2_7  + 3.145626 s_2_8  + 2000.000000 r_2_4_5 > -968.477400
t_1_6 - t_1_4 - 1007.026859 s_1_4  + 3.513429 s_1_3  + 3.513429 s_1_8  > -963.433200
t_1_6 - t_2_4 - 1006.291251 s_2_4  + 3.145626 s_2_3  + 3.145626 s_2_8  > -964.773600
t_2_6 - t_1_4 - 1007.026859 s_1_4  + 3.513429 s_1_3  + 3.513429 s_1_8  > -963.433200
t_2_6 - t_2_4 - 1006.291251 s_2_4  + 3.145626 s_2_3  + 3.145626 s_2_8  > -964.773600
s_1_4 + s_1_7 + 1000 r_1_4_7 >= 2
- s_1_4 - s_1_7 - 1000 r_1_4_7 >= -1001
t_1_4 - t_1_7 - 1000.000000 u_1_4_7 - 0.000000 s_1_7  + 2000.000000 r_1_4_7 > -928.421400
s_2_4 + s_2_7 + 1000 r_2_4_7 >= 2
- s_2_4 - s_2_7 - 1000 r_2_4_7 >= -1001
t_2_4 - t_2_7 - 1000.000000 u_2_4_7 - 0.000000 s_2_7  + 2000.000000 r_2_4_7 > -934.069000
t_1_4 - t_1_8 - 1000.000000 s_1_8  > -928.474600
t_1_4 - t_2_8 - 1000.000000 s_2_8  > -934.118800
t_2_4 - t_1_8 - 1000.000000 s_1_8  > -928.474600
t_2_4 - t_2_8 - 1000.000000 s_2_8  > -934.118800
s_1_5 + s_1_1 + 1000 r_1_1_5 >= 2
- s_1_5 - s_1_1 - 1000 r_1_1_5 >= -1001
t_1_5 - t_1_1 + 1000.000000 u_1_1_5 - 3.513429 s_1_1  + 3.513429 s_1_7  + 2000.000000 r_1_1_5 > 43.311850
s_2_5 + s_2_1 + 1000 r_2_1_5 >= 2
- s_2_5 - s_2_1 - 1000 r_2_1_5 >= -1001
t_2_5 - t_2_1 + 1000.000000 u_2_1_5 - 3.145626 s_2_1  + 3.145626 s_2_7  + 2000.000000 r_2_1_5 > 39.412550
s_1_5 + s_1_2 + 1000 r_1_2_5 >= 2
- s_1_5 - s_1_2 - 1000 r_1_2_5 >= -1001
t_1_5 - t_1_2 + 1000.000000 u_1_2_5 - 3.513429 s_1_2  + 3.513429 s_1_8  + 2000.000000 r_1_2_5 > 51.707600
s_2_5 + s_2_2 + 1000 r_2_2_5 >= 2
- s_2_5 - s_2_2 - 1000 r_2_2_5 >= -1001
t_2_5 - t_2_2 + 1000.000000 u_2_2_5 - 3.145626 s_2_2  + 3.145626 s_2_8  + 2000.000000 r_2_2_5 > 45.213600
s_1_5 + s_1_3 + 1000 r_1_3_5 >= 2
- s_1_5 - s_1_3 - 1000 r_1_3_5 >= -1001
t_1_5 - t_1_3 + 1000.000000 u_1_3_5 - 3.513429 s_1_3  + 3.513429 s_1_8  + 2000.000000 r_1_3_5 > 65.079800
s_2_5 + s_2_3 + 1000 r_2_3_5 >= 2
- s_2_5 - s_2_3 - 1000 r_2_3_5 >= -1001
t_2_5 - t_2_3 + 1000.000000 u_2_3_5 - 3.145626 s_2_3  + 3.145626 s_2_8  + 2000.000000 r_2_3_5 > 63.592400
s_1_5 + s_1_4 + 1000 r_1_4_5 >= 2
- s_1_5 - s_1_4 - 1000 r_1_4_5 >= -1001
t_1_5 - t_1_4 + 1000.000000 u_1_4_5 - 7.026859 s_1_4  + 3.513429 s_1_3  + 3.513429 s_1_8  + 2000.000000 r_1_4_5 > 36.566800
s_2_5 + s_2_4 + 1000 r_2_4_5 >= 2
- s_2_5 - s_2_4 - 1000 r_2_4_5 >= -1001
t_2_5 - t_2_4 + 1000.000000 u_2_4_5 - 6.291251 s_2_4  + 3.145626 s_2_3  + 3.145626 s_2_8  + 2000.000000 r_2_4_5 > 35.226400
t_1_6 - t_1_5 - 1007.026859 s_1_5  + 3.513429 s_1_7  + 3.513429 s_1_8  > -968.633600
t_1_6 - t_2_5 - 1006.291251 s_2_5  + 3.145626 s_2_7  + 3.145626 s_2_8  > -968.477400
t_2_6 - t_1_5 - 1007.026859 s_1_5  + 3.513429 s_1_7  + 3.513429 s_1_8  > -968.633600
t_2_6 - t_2_5 - 1006.291251 s_2_5  + 3.145626 s_2_7  + 3.145626 s_2_8  > -968.477400
t_1_5 - t_1_7 - 1000.000000 s_1_7  > -928.421400
t_1_5 - t_2_7 - 1000.000000 s_2_7  > -934.069000
t_2_5 - t_1_7 - 1000.000000 s_1_7  > -928.421400
t_2_5 - t_2_7 - 1000.000000 s_2_7  > -934.069000
t_1_5 - t_1_8 - 1000.000000 s_1_8  > -928.474600
t_1_5 - t_2_8 - 1000.000000 s_2_8  > -934.118800
t_2_5 - t_1_8 - 1000.000000 s_1_8  > -928.474600
t_2_5 - t_2_8 - 1000.000000 s_2_8  > -934.118800
s_1_7 + s_1_2 + 1000 r_1_2_7 >= 2
- s_1_7 - s_1_2 - 1000 r_1_2_7 >= -1001
t_1_7 - t_1_2 + 1000.000000 u_1_2_7 - 3.513429 s_1_2  + 3.513429 s_1_8  + 2000.000000 r_1_2_7 > 51.707600
s_2_7 + s_2_2 + 1000 r_2_2_7 >= 2
- s_2_7 - s_2_2 - 1000 r_2_2_7 >= -1001
t_2_7 - t_2_2 + 1000.000000 u_2_2_7 - 3.145626 s_2_2  + 3.145626 s_2_8  + 2000.000000 r_2_2_7 > 45.213600
s_1_7 + s_1_3 + 1000 r_1_3_7 >= 2
- s_1_7 - s_1_3 - 1000 r_1_3_7 >= -1001
t_1_7 - t_1_3 + 1000.000000 u_1_3_7 - 3.513429 s_1_3  + 3.513429 s_1_8  + 2000.000000 r_1_3_7 > 65.079800
s_2_7 + s_2_3 + 1000 r_2_3_7 >= 2
- s_2_7 - s_2_3 - 1000 r_2_3_7 >= -1001
t_2_7 - t_2_3 + 1000.000000 u_2_3_7 - 3.145626 s_2_3  + 3.145626 s_2_8  + 2000.000000 r_2_3_7 > 63.592400
s_1_7 + s_1_4 + 1000 r_1_4_7 >= 2
- s_1_7 - s_1_4 - 1000 r_1_4_7 >= -1001
t_1_7 - t_1_4 + 1000.000000 u_1_4_7 - 7.026859 s_1_4  + 3.513429 s_1_3  + 3.513429 s_1_8  + 2000.000000 r_1_4_7 > 36.566800
s_2_7 + s_2_4 + 1000 r_2_4_7 >= 2
- s_2_7 - s_2_4 - 1000 r_2_4_7 >= -1001
t_2_7 - t_2_4 + 1000.000000 u_2_4_7 - 6.291251 s_2_4  + 3.145626 s_2_3  + 3.145626 s_2_8  + 2000.000000 r_2_4_7 > 35.226400
s_1_7 + s_1_8 + 1000 r_1_7_8 >= 2
- s_1_7 - s_1_8 - 1000 r_1_7_8 >= -1001
t_1_7 - t_1_8 - 1000.000000 u_1_7_8 - 0.000000 s_1_8  + 2000.000000 r_1_7_8 > -928.474600
s_2_7 + s_2_8 + 1000 r_2_7_8 >= 2
- s_2_7 - s_2_8 - 1000 r_2_7_8 >= -1001
t_2_7 - t_2_8 - 1000.000000 u_2_7_8 - 0.000000 s_2_8  + 2000.000000 r_2_7_8 > -934.118800
s_1_8 + s_1_1 + 1000 r_1_1_8 >= 2
- s_1_8 - s_1_1 - 1000 r_1_1_8 >= -1001
t_1_8 - t_1_1 + 1000.000000 u_1_1_8 - 3.513429 s_1_1  + 3.513429 s_1_7  + 2000.000000 r_1_1_8 > 43.311850
s_2_8 + s_2_1 + 1000 r_2_1_8 >= 2
- s_2_8 - s_2_1 - 1000 r_2_1_8 >= -1001
t_2_8 - t_2_1 + 1000.000000 u_2_1_8 - 3.145626 s_2_1  + 3.145626 s_2_7  + 2000.000000 r_2_1_8 > 39.412550
s_1_8 + s_1_7 + 1000 r_1_7_8 >= 2
- s_1_8 - s_1_7 - 1000 r_1_7_8 >= -1001
t_1_8 - t_1_7 + 1000.000000 u_1_7_8 - 0.000000 s_1_7  + 2000.000000 r_1_7_8 > 71.578600
s_2_8 + s_2_7 + 1000 r_2_7_8 >= 2
- s_2_8 - s_2_7 - 1000 r_2_7_8 >= -1001
t_2_8 - t_2_7 + 1000.000000 u_2_7_8 - 0.000000 s_2_7  + 2000.000000 r_2_7_8 > 65.931000
Binary
s_1_1
s_2_1
s_1_2
s_2_2
s_1_3
s_2_3
s_1_4
s_2_4
s_1_5
s_2_5
s_1_6
s_2_6
s_1_7
s_2_7
s_1_8
s_2_8
u_1_1_2
r_1_1_2
u_2_1_2
r_2_1_2
u_1_1_3
r_1_1_3
u_2_1_3
r_2_1_3
u_1_1_4
r_1_1_4
u_2_1_4
r_2_1_4
u_1_1_5
r_1_1_5
u_2_1_5
r_2_1_5
u_1_1_8
r_1_1_8
u_2_1_8
r_2_1_8
u_1_2_3
r_1_2_3
u_2_2_3
r_2_2_3
u_1_2_4
r_1_2_4
u_2_2_4
r_2_2_4
u_1_2_5
r_1_2_5
u_2_2_5
r_2_2_5
u_1_2_7
r_1_2_7
u_2_2_7
r_2_2_7
u_1_3_5
r_1_3_5
u_2_3_5
r_2_3_5
u_1_3_7
r_1_3_7
u_2_3_7
r_2_3_7
u_1_4_5
r_1_4_5
u_2_4_5
r_2_4_5
u_1_4_7
r_1_4_7
u_2_4_7
r_2_4_7
u_1_7_8
r_1_7_8
u_2_7_8
r_2_7_8

End
